Route #1: 117 79 63 46 1 27 108
Route #2: 95 94 118 109 36 55 30 85 62
Route #3: 64 101 58 80 65 40 22 47 68 25
Route #4: 93 26
Route #5: 4 107 41 7 77
Route #6: 20 29 104 71 119
Route #7: 72 98 69
Route #8: 67 32 10
Route #9: 121 54 91 21
Route #10: 84 53 39 8
Route #11: 18 45
Route #12: 113 33 5
Route #13: 120 75
Route #14: 12 37
Route #15: 103 35
Route #16: 100 57 48
Route #17: 86 111
Route #18: 61 83 122
Route #19: 73 110 76
Route #20: 99 112
Route #21: 38 96
Route #22: 60 90 102
Route #23: 31 3
Route #24: 123 42 81 16 43 106
Route #25: 9 19 11 114 87 92 74
Route #26: 24 49 14 97 44 52
Route #27: 78 124 2 34 6 70 59 28 13
Route #28: 23 66 116 50 15 17
Route #29: 56 82
Route #30: 115 88 89 105 51
